60

 0   1   2   3   4   5   6   7   8   9   1   2   3   4   5   6   7   8   9  10   2   3   4   5   6   7   8   9  10  11   3   4   5   6   7   8   9  10  11  12   4   5   6   7   8   9  10  11  12  13   5   6   7   8   9  10  11  12  13  14  
 1   0   1   2   3   4   5   6   7   8   2   1   2   3   4   5   6   7   8   9   3   2   3   4   5   6   7   8   9  10   4   3   4   5   6   7   8   9  10  11   5   4   5   6   7   8   9  10  11  12   6   5   6   7   8   9  10  11  12  13  
 2   1   0   1   2   3   4   5   6   7   3   2   1   2   3   4   5   6   7   8   4   3   2   3   4   5   6   7   8   9   5   4   3   4   5   6   7   8   9  10   6   5   4   5   6   7   8   9  10  11   7   6   5   6   7   8   9  10  11  12  
 3   2   1   0   1   2   3   4   5   6   4   3   2   1   2   3   4   5   6   7   5   4   3   2   3   4   5   6   7   8   6   5   4   3   4   5   6   7   8   9   7   6   5   4   5   6   7   8   9  10   8   7   6   5   6   7   8   9  10  11  
 4   3   2   1   0   1   2   3   4   5   5   4   3   2   1   2   3   4   5   6   6   5   4   3   2   3   4   5   6   7   7   6   5   4   3   4   5   6   7   8   8   7   6   5   4   5   6   7   8   9   9   8   7   6   5   6   7   8   9  10  
 5   4   3   2   1   0   1   2   3   4   6   5   4   3   2   1   2   3   4   5   7   6   5   4   3   2   3   4   5   6   8   7   6   5   4   3   4   5   6   7   9   8   7   6   5   4   5   6   7   8  10   9   8   7   6   5   6   7   8   9  
 6   5   4   3   2   1   0   1   2   3   7   6   5   4   3   2   1   2   3   4   8   7   6   5   4   3   2   3   4   5   9   8   7   6   5   4   3   4   5   6  10   9   8   7   6   5   4   5   6   7  11  10   9   8   7   6   5   6   7   8  
 7   6   5   4   3   2   1   0   1   2   8   7   6   5   4   3   2   1   2   3   9   8   7   6   5   4   3   2   3   4  10   9   8   7   6   5   4   3   4   5  11  10   9   8   7   6   5   4   5   6  12  11  10   9   8   7   6   5   6   7  
 8   7   6   5   4   3   2   1   0   1   9   8   7   6   5   4   3   2   1   2  10   9   8   7   6   5   4   3   2   3  11  10   9   8   7   6   5   4   3   4  12  11  10   9   8   7   6   5   4   5  13  12  11  10   9   8   7   6   5   6  
 9   8   7   6   5   4   3   2   1   0  10   9   8   7   6   5   4   3   2   1  11  10   9   8   7   6   5   4   3   2  12  11  10   9   8   7   6   5   4   3  13  12  11  10   9   8   7   6   5   4  14  13  12  11  10   9   8   7   6   5  
 1   2   3   4   5   6   7   8   9  10   0   1   2   3   4   5   6   7   8   9   1   2   3   4   5   6   7   8   9  10   2   3   4   5   6   7   8   9  10  11   3   4   5   6   7   8   9  10  11  12   4   5   6   7   8   9  10  11  12  13  
 2   1   2   3   4   5   6   7   8   9   1   0   1   2   3   4   5   6   7   8   2   1   2   3   4   5   6   7   8   9   3   2   3   4   5   6   7   8   9  10   4   3   4   5   6   7   8   9  10  11   5   4   5   6   7   8   9  10  11  12  
 3   2   1   2   3   4   5   6   7   8   2   1   0   1   2   3   4   5   6   7   3   2   1   2   3   4   5   6   7   8   4   3   2   3   4   5   6   7   8   9   5   4   3   4   5   6   7   8   9  10   6   5   4   5   6   7   8   9  10  11  
 4   3   2   1   2   3   4   5   6   7   3   2   1   0   1   2   3   4   5   6   4   3   2   1   2   3   4   5   6   7   5   4   3   2   3   4   5   6   7   8   6   5   4   3   4   5   6   7   8   9   7   6   5   4   5   6   7   8   9  10  
 5   4   3   2   1   2   3   4   5   6   4   3   2   1   0   1   2   3   4   5   5   4   3   2   1   2   3   4   5   6   6   5   4   3   2   3   4   5   6   7   7   6   5   4   3   4   5   6   7   8   8   7   6   5   4   5   6   7   8   9  
 6   5   4   3   2   1   2   3   4   5   5   4   3   2   1   0   1   2   3   4   6   5   4   3   2   1   2   3   4   5   7   6   5   4   3   2   3   4   5   6   8   7   6   5   4   3   4   5   6   7   9   8   7   6   5   4   5   6   7   8  
 7   6   5   4   3   2   1   2   3   4   6   5   4   3   2   1   0   1   2   3   7   6   5   4   3   2   1   2   3   4   8   7   6   5   4   3   2   3   4   5   9   8   7   6   5   4   3   4   5   6  10   9   8   7   6   5   4   5   6   7  
 8   7   6   5   4   3   2   1   2   3   7   6   5   4   3   2   1   0   1   2   8   7   6   5   4   3   2   1   2   3   9   8   7   6   5   4   3   2   3   4  10   9   8   7   6   5   4   3   4   5  11  10   9   8   7   6   5   4   5   6  
 9   8   7   6   5   4   3   2   1   2   8   7   6   5   4   3   2   1   0   1   9   8   7   6   5   4   3   2   1   2  10   9   8   7   6   5   4   3   2   3  11  10   9   8   7   6   5   4   3   4  12  11  10   9   8   7   6   5   4   5  
10   9   8   7   6   5   4   3   2   1   9   8   7   6   5   4   3   2   1   0  10   9   8   7   6   5   4   3   2   1  11  10   9   8   7   6   5   4   3   2  12  11  10   9   8   7   6   5   4   3  13  12  11  10   9   8   7   6   5   4  
 2   3   4   5   6   7   8   9  10  11   1   2   3   4   5   6   7   8   9  10   0   1   2   3   4   5   6   7   8   9   1   2   3   4   5   6   7   8   9  10   2   3   4   5   6   7   8   9  10  11   3   4   5   6   7   8   9  10  11  12  
 3   2   3   4   5   6   7   8   9  10   2   1   2   3   4   5   6   7   8   9   1   0   1   2   3   4   5   6   7   8   2   1   2   3   4   5   6   7   8   9   3   2   3   4   5   6   7   8   9  10   4   3   4   5   6   7   8   9  10  11  
 4   3   2   3   4   5   6   7   8   9   3   2   1   2   3   4   5   6   7   8   2   1   0   1   2   3   4   5   6   7   3   2   1   2   3   4   5   6   7   8   4   3   2   3   4   5   6   7   8   9   5   4   3   4   5   6   7   8   9  10  
 5   4   3   2   3   4   5   6   7   8   4   3   2   1   2   3   4   5   6   7   3   2   1   0   1   2   3   4   5   6   4   3   2   1   2   3   4   5   6   7   5   4   3   2   3   4   5   6   7   8   6   5   4   3   4   5   6   7   8   9  
 6   5   4   3   2   3   4   5   6   7   5   4   3   2   1   2   3   4   5   6   4   3   2   1   0   1   2   3   4   5   5   4   3   2   1   2   3   4   5   6   6   5   4   3   2   3   4   5   6   7   7   6   5   4   3   4   5   6   7   8  
 7   6   5   4   3   2   3   4   5   6   6   5   4   3   2   1   2   3   4   5   5   4   3   2   1   0   1   2   3   4   6   5   4   3   2   1   2   3   4   5   7   6   5   4   3   2   3   4   5   6   8   7   6   5   4   3   4   5   6   7  
 8   7   6   5   4   3   2   3   4   5   7   6   5   4   3   2   1   2   3   4   6   5   4   3   2   1   0   1   2   3   7   6   5   4   3   2   1   2   3   4   8   7   6   5   4   3   2   3   4   5   9   8   7   6   5   4   3   4   5   6  
 9   8   7   6   5   4   3   2   3   4   8   7   6   5   4   3   2   1   2   3   7   6   5   4   3   2   1   0   1   2   8   7   6   5   4   3   2   1   2   3   9   8   7   6   5   4   3   2   3   4  10   9   8   7   6   5   4   3   4   5  
10   9   8   7   6   5   4   3   2   3   9   8   7   6   5   4   3   2   1   2   8   7   6   5   4   3   2   1   0   1   9   8   7   6   5   4   3   2   1   2  10   9   8   7   6   5   4   3   2   3  11  10   9   8   7   6   5   4   3   4  
11  10   9   8   7   6   5   4   3   2  10   9   8   7   6   5   4   3   2   1   9   8   7   6   5   4   3   2   1   0  10   9   8   7   6   5   4   3   2   1  11  10   9   8   7   6   5   4   3   2  12  11  10   9   8   7   6   5   4   3  
 3   4   5   6   7   8   9  10  11  12   2   3   4   5   6   7   8   9  10  11   1   2   3   4   5   6   7   8   9  10   0   1   2   3   4   5   6   7   8   9   1   2   3   4   5   6   7   8   9  10   2   3   4   5   6   7   8   9  10  11  
 4   3   4   5   6   7   8   9  10  11   3   2   3   4   5   6   7   8   9  10   2   1   2   3   4   5   6   7   8   9   1   0   1   2   3   4   5   6   7   8   2   1   2   3   4   5   6   7   8   9   3   2   3   4   5   6   7   8   9  10  
 5   4   3   4   5   6   7   8   9  10   4   3   2   3   4   5   6   7   8   9   3   2   1   2   3   4   5   6   7   8   2   1   0   1   2   3   4   5   6   7   3   2   1   2   3   4   5   6   7   8   4   3   2   3   4   5   6   7   8   9  
 6   5   4   3   4   5   6   7   8   9   5   4   3   2   3   4   5   6   7   8   4   3   2   1   2   3   4   5   6   7   3   2   1   0   1   2   3   4   5   6   4   3   2   1   2   3   4   5   6   7   5   4   3   2   3   4   5   6   7   8  
 7   6   5   4   3   4   5   6   7   8   6   5   4   3   2   3   4   5   6   7   5   4   3   2   1   2   3   4   5   6   4   3   2   1   0   1   2   3   4   5   5   4   3   2   1   2   3   4   5   6   6   5   4   3   2   3   4   5   6   7  
 8   7   6   5   4   3   4   5   6   7   7   6   5   4   3   2   3   4   5   6   6   5   4   3   2   1   2   3   4   5   5   4   3   2   1   0   1   2   3   4   6   5   4   3   2   1   2   3   4   5   7   6   5   4   3   2   3   4   5   6  
 9   8   7   6   5   4   3   4   5   6   8   7   6   5   4   3   2   3   4   5   7   6   5   4   3   2   1   2   3   4   6   5   4   3   2   1   0   1   2   3   7   6   5   4   3   2   1   2   3   4   8   7   6   5   4   3   2   3   4   5  
10   9   8   7   6   5   4   3   4   5   9   8   7   6   5   4   3   2   3   4   8   7   6   5   4   3   2   1   2   3   7   6   5   4   3   2   1   0   1   2   8   7   6   5   4   3   2   1   2   3   9   8   7   6   5   4   3   2   3   4  
11  10   9   8   7   6   5   4   3   4  10   9   8   7   6   5   4   3   2   3   9   8   7   6   5   4   3   2   1   2   8   7   6   5   4   3   2   1   0   1   9   8   7   6   5   4   3   2   1   2  10   9   8   7   6   5   4   3   2   3  
12  11  10   9   8   7   6   5   4   3  11  10   9   8   7   6   5   4   3   2  10   9   8   7   6   5   4   3   2   1   9   8   7   6   5   4   3   2   1   0  10   9   8   7   6   5   4   3   2   1  11  10   9   8   7   6   5   4   3   2  
 4   5   6   7   8   9  10  11  12  13   3   4   5   6   7   8   9  10  11  12   2   3   4   5   6   7   8   9  10  11   1   2   3   4   5   6   7   8   9  10   0   1   2   3   4   5   6   7   8   9   1   2   3   4   5   6   7   8   9  10  
 5   4   5   6   7   8   9  10  11  12   4   3   4   5   6   7   8   9  10  11   3   2   3   4   5   6   7   8   9  10   2   1   2   3   4   5   6   7   8   9   1   0   1   2   3   4   5   6   7   8   2   1   2   3   4   5   6   7   8   9  
 6   5   4   5   6   7   8   9  10  11   5   4   3   4   5   6   7   8   9  10   4   3   2   3   4   5   6   7   8   9   3   2   1   2   3   4   5   6   7   8   2   1   0   1   2   3   4   5   6   7   3   2   1   2   3   4   5   6   7   8  
 7   6   5   4   5   6   7   8   9  10   6   5   4   3   4   5   6   7   8   9   5   4   3   2   3   4   5   6   7   8   4   3   2   1   2   3   4   5   6   7   3   2   1   0   1   2   3   4   5   6   4   3   2   1   2   3   4   5   6   7  
 8   7   6   5   4   5   6   7   8   9   7   6   5   4   3   4   5   6   7   8   6   5   4   3   2   3   4   5   6   7   5   4   3   2   1   2   3   4   5   6   4   3   2   1   0   1   2   3   4   5   5   4   3   2   1   2   3   4   5   6  
 9   8   7   6   5   4   5   6   7   8   8   7   6   5   4   3   4   5   6   7   7   6   5   4   3   2   3   4   5   6   6   5   4   3   2   1   2   3   4   5   5   4   3   2   1   0   1   2   3   4   6   5   4   3   2   1   2   3   4   5  
10   9   8   7   6   5   4   5   6   7   9   8   7   6   5   4   3   4   5   6   8   7   6   5   4   3   2   3   4   5   7   6   5   4   3   2   1   2   3   4   6   5   4   3   2   1   0   1   2   3   7   6   5   4   3   2   1   2   3   4  
11  10   9   8   7   6   5   4   5   6  10   9   8   7   6   5   4   3   4   5   9   8   7   6   5   4   3   2   3   4   8   7   6   5   4   3   2   1   2   3   7   6   5   4   3   2   1   0   1   2   8   7   6   5   4   3   2   1   2   3  
12  11  10   9   8   7   6   5   4   5  11  10   9   8   7   6   5   4   3   4  10   9   8   7   6   5   4   3   2   3   9   8   7   6   5   4   3   2   1   2   8   7   6   5   4   3   2   1   0   1   9   8   7   6   5   4   3   2   1   2  
13  12  11  10   9   8   7   6   5   4  12  11  10   9   8   7   6   5   4   3  11  10   9   8   7   6   5   4   3   2  10   9   8   7   6   5   4   3   2   1   9   8   7   6   5   4   3   2   1   0  10   9   8   7   6   5   4   3   2   1  
 5   6   7   8   9  10  11  12  13  14   4   5   6   7   8   9  10  11  12  13   3   4   5   6   7   8   9  10  11  12   2   3   4   5   6   7   8   9  10  11   1   2   3   4   5   6   7   8   9  10   0   1   2   3   4   5   6   7   8   9  
 6   5   6   7   8   9  10  11  12  13   5   4   5   6   7   8   9  10  11  12   4   3   4   5   6   7   8   9  10  11   3   2   3   4   5   6   7   8   9  10   2   1   2   3   4   5   6   7   8   9   1   0   1   2   3   4   5   6   7   8  
 7   6   5   6   7   8   9  10  11  12   6   5   4   5   6   7   8   9  10  11   5   4   3   4   5   6   7   8   9  10   4   3   2   3   4   5   6   7   8   9   3   2   1   2   3   4   5   6   7   8   2   1   0   1   2   3   4   5   6   7  
 8   7   6   5   6   7   8   9  10  11   7   6   5   4   5   6   7   8   9  10   6   5   4   3   4   5   6   7   8   9   5   4   3   2   3   4   5   6   7   8   4   3   2   1   2   3   4   5   6   7   3   2   1   0   1   2   3   4   5   6  
 9   8   7   6   5   6   7   8   9  10   8   7   6   5   4   5   6   7   8   9   7   6   5   4   3   4   5   6   7   8   6   5   4   3   2   3   4   5   6   7   5   4   3   2   1   2   3   4   5   6   4   3   2   1   0   1   2   3   4   5  
10   9   8   7   6   5   6   7   8   9   9   8   7   6   5   4   5   6   7   8   8   7   6   5   4   3   4   5   6   7   7   6   5   4   3   2   3   4   5   6   6   5   4   3   2   1   2   3   4   5   5   4   3   2   1   0   1   2   3   4  
11  10   9   8   7   6   5   6   7   8  10   9   8   7   6   5   4   5   6   7   9   8   7   6   5   4   3   4   5   6   8   7   6   5   4   3   2   3   4   5   7   6   5   4   3   2   1   2   3   4   6   5   4   3   2   1   0   1   2   3  
12  11  10   9   8   7   6   5   6   7  11  10   9   8   7   6   5   4   5   6  10   9   8   7   6   5   4   3   4   5   9   8   7   6   5   4   3   2   3   4   8   7   6   5   4   3   2   1   2   3   7   6   5   4   3   2   1   0   1   2  
13  12  11  10   9   8   7   6   5   6  12  11  10   9   8   7   6   5   4   5  11  10   9   8   7   6   5   4   3   4  10   9   8   7   6   5   4   3   2   3   9   8   7   6   5   4   3   2   1   2   8   7   6   5   4   3   2   1   0   1  
14  13  12  11  10   9   8   7   6   5  13  12  11  10   9   8   7   6   5   4  12  11  10   9   8   7   6   5   4   3  11  10   9   8   7   6   5   4   3   2  10   9   8   7   6   5   4   3   2   1   9   8   7   6   5   4   3   2   1   0  

 0   0   1   0   0   0   0  30   4   0   0   0   1   0   0   0   0   0   0   0   0   0   0   0   0   0   0   0   0   0  51   0   0  10   0   0   0   0   0   0   0   0   0   0  17   0   0   0   0   0  10   0   0   0   1   0   0   0   0   0  
 0   0   0   0   1   0   0   0   0   0   0  21   0   0  40   1   0   0   1   0   0   0   0  21   0   0   0   1   0   0   0   0   0   0   0   0   0   0   0   0   0   0   0   0   0   0   0   0   0   0   0   0  22   0   0   0   2   0   0   0  
 4   0   0   1   0   0   0   3   0  55   1   0   4   0   0   0   0   0   0   0   0   0   0   0   1   0   0   0   3  55  27   0   0   0   0   0   0   0   0   1   0   0  14   0   1   5   0   0   0   0   0   0   0   0  27   0   0   0   0   1  
 0   0   1   0   0   0  76   0   3  16   1   0   3   0   0   0   0   1   0   0   0   0   0   0   0   0   0   0   0   0   0   4   0   1   0   2  70   0   1   1   0   5   1   0   0   1   0   0   0   1   0   1   0   0  77  11   0   0   0   0  
 0   4   0   0   0   0   0   0   0   0   0   0   0   0   0   0   0   0   8   0   0   0   0   0   0   0   0   1   0   0   0   0   0   0   0   0   0   0   0   0   0   0   0   0   0   0   0   0   0   0   0   0   1   0   0   0   5   0   0   0  
 0   0   0   0   0   0   0   0   0   0   0   0   0  24   0   0   0   0   0   0   1   0  84   0   0   0   1   0   0   1   0   0   0   0   0   0   0   0   0   0  21   0   0   0   0   0   0   0   0   0   0   0   0   0   0   0   0   0   0   0  
 0   0   0  57   0   0   0   0  54   0   0   0   0   0   0   0   0   0   0   0   0   0   0   0   0   0   0   0   0   0   0   3   0   8   0  53   0   0   1   0   0   2   0   0   0   0   0   0   0   0   0  78   0   0   0   1   0   0   0   0  
27   0  13   0   0   0   0   0   0   0   0   0   1   0   0   0   0   0   0   0   0   0   0   0  10   1   0   0  10   0   1   0   0  17   0   0   0   0   0   0   0   0   0   0   1   1   0   0   0   0   0   0   0   0  20   0   0   0   0  33  
26   0   0   4   0   0   1   0   0   0   0   0   0   0   0   0   0   0   0   0   0   0   0   0   0   0   0   0   0   0   1   0   0  49   0   0   0   0   0   0   0  65   0   0   0   0   0   0   0   0   1   0   0   0   0   0   0   0   0   0  
 0   0   1   1   0   0   0   0   0   0   1   0   1   0   0   0   0   7   0   0   0   0   0   0   0   0   0   0   0   0   0  84   0   0  39   0  97   1   1   1   0   0   1   0   0   1   0   0   0   1   0   0   0   0  23  33   0   0   0   0  
 0   0  49   2   0   0   0   0   0   1   0   0  75   0   0   0   0   1   0   0   0   0   0   0   0   0   0   0   0   7   0   1   0   0   1   0   1   1   2   3   0   0   2   0   0  52   0   0   0   7   0   0   0   0   8  41   0   0   0  36  
 0   3   0   0   0   0   0   0   0   0   0   0   0   0  13  10   0   0   0   0   0   0   0  15   0   0   0   0   0   0   0   0   0   0   0   0   0   9   0   0   0   0   0   0   0   0   0   0   0   1   0   0   0  28   0   0   1   0   0   0  
 1   0   1   9   0   0   0  42   0   1  12   0   0   0   0   0   0   0   0   0   0   0   0   0   6   0   0   0   1   1  42   0   0   1   0   0   0   0   0   1   0   0  33   0   1   6   0   0   0   0   0   0   0   0   1   0   0   0   0   1  
 0   0   0   0   0  89   0   0   0   0   0   0   0   0   0   0   0   0   0   0   0   0   1   0   0   0   1   6   0   0   0   0   0   0   0   0   0   0   0   0  12   0   0   0   0   0   0   0   0   0   0   0   1   0   0   0   0   0   0   0  
 0   1   0   0   0   0   0   0   0   0   0   5   0   0   0  30   0   0   0   0   0   0   0   1   0   0   0   0   0   0   0   0   0   0   1   0   0   1   0   0   0   0   0   0   0   0   0   0   0   1   0   0   0   1   0   0  43   0   0   0  
 0   4   0   0   0   0   0   0   0   0   0   1   0   0  15   0   0   0   0   0   0   0   0   4   0   0   0   0   0   0   0   0   0   0  16   0   0   1   0   0   0   0   0   0   0   0   0   0   0   1   0   0   0  74   0   0   1   0   0   0  
 0   0   0   0   0   0   0   0   0   0   0   0   0   0   0   0   0   0   0  19  29   0   0   0   0   0   0   0   0   0   0   0   0   0   0   0   0   0   0   0   0   0   0   1   0   0   1   0   0   0   0   0   0   0   0   0   0   3   1   0  
 0   0   0  82   0   0   0   0   0   1   1   0   0   0   0   0   0   0   0   0   0   0   0   1   0   0   0   0   0   0   0   1   0   0   1   0   9   4   1   1   0   0   1   0   0  28   0   0   0  22   0   1   0   0   0  87   0   0   0   0  
 0   1   0   0  84   0   0   0   0   0   0   0   0   0   0   0   0   0   0   0   0   0   0   0   0   0   0   1   0   0   0   0   0   0   0   0   0   0   0   0   0   0   0   0   0   0   0   0   0   0   0   0  34   0   0   0   1   0   0   0  
 0   0   0   0   0   0   0   0   0   0   0   0   0   0   0   0   3   0   0   0   1   0   0   0  20   1   0   0   1   1   0   0   0   0   0   0   0   0   0   0   0   0   0   1   1   0  18   0   0   0   0   0   0   0   0   0   0  83  24   1  
 0   0   0   0   0   1   0   0   0   0   0   0   0   0   0   0   1   0   0   9   0   0   0   0   0   0   0   0   0   1   0   0   0   0   0   0   0   0   0   0   0   0   0   1   0   0   1   0   0   0   0   0   0   0   0   0   0  53   3   0  
 0   0   0   0   0   0   0   0   0   0   0   0   0   0   0   0   0   0   0   0   0   0   0   0   0   0   0   0   0   0   0   1  40   0   0   1   0   0   1   0   0   0   0   0   0   0   0   1   1   1   0   0   0   1   0   1   0   0   0   0  
 0   0   0   0   0   1   0   0   0   0   0   0   0   1   0   0   0   0   0   0   0   0   0   0   0   0   1   0   0   0   0   0   0   0   0   0   0   0   0   0  78   0   0   0   0   0   0   0   0   0   0   0   0   0   0   0   0   0   0   0  
 0   6   0   0   0   0   0   0   0   0   0   1   0   0  45  85   0   1   0   0   0   0   0   0   0   0   0   0   0   0   0   0   0   0   1   0   2   1   4   1   0   0   0   0   0   0   0   0   0   1   0   0   0   1   0   0   1   0   0   0  
 0   0   9   0   0   0   0   1   0   0   0   0  18   0   0   0   0   0   0   1   0   0   0   0   0   1   0   0   1   0   0   0   0   0   0   0   0   0   0   0   0   0   0   0   1   0   1   0   0   0   0   0   0   0   0   0   0   1  84   1  
 0   0   0   0   0   0   0   1   0   0   0   0   0   0   0   0   0   0   0   1   0   0   0   0   2   0   0   0  37   0   0   0   0   0   0   0   0   0   0   0   0   0   0   0   1   0   5   0   0   0   0   0   0   0   0   0   0   8  17   1  
 0   0   0   0   0   1   0   0   0   0   0   0   0   1   0   0   0   0   0   0   0   0   3   0   0   0   0   0   0   1   0   0   0   0   3   0   0   0   0   0   1   0   0   0   0   0   0   0   0   0   0   0   0   0   0   0   0   0   0   0  
 0   1   0   0   1   0   0   0   0   0   0   0   0   7   0   0   0   0   2   0   0   0   0   0   0   0   0   0   0   0   0   0   0   0   0   0   0   0   0   0   0   0   0   0   0   0   0   0   0   0   0   0  49   0   0   0   6   0   0   0  
 0   0   1   0   0   0   0  94   0   0   0   0   1   0   0   0   0   0   0   2   0   0   0   0   1   1   0   0   0   1   0   0   0   0   0   0   0   0   0   0   0   0   1   0   5   1   1   0   0   0   0   0   0   0   1   0   0  20  18   3  
 0   0  68   0   0  33   0   0   0   0   2   0   1   0   0   0   0   0   0  25  36   0   0   0   0   0  33   0   1   0   0   0   0   0   0   0   0   0   0   1   0   0   1   0  58  23  76   0   0   0   0   0   0   0   1   0   0  38  14  87  
71   0   8   0   0   0   0   1   1   0   0   0   1   0   0   0   0   0   0   0   0   0   0   0   0   0   0   0   0   0   0   0   0  12   0   0   0   0   0   0   0   0   0   0   1   0   0   0   0   0   1   0   0   0   1   0   0   0   0   0  
 0   0   0   3   0   0   1   0   0   3  32   0   0   0   0   0   0   2   0   0   0  22   0   0   0   0   0   0   0   0   0   0   0   0   0   1   1  22   1  82   0  13   0   0   0   0   0   0   0   1   0  94   0   0   0  28   0   0   0   0  
 0   0   0   0   0   0   0   0   0   0   0   0   0   0   0   0   0   0   0   0   0   1   0   0   0   0   0   0   0   0   0   0   0   0   0   0   0   0   0   0   0   0   0   0   0   0   0   1   1   0   0   0   0   0   0   0   0   0   0   0  
19   0   0  17   0   0  11   1   1   0   0   0  87   0   0   0   0   0   0   0   0   0   0   0   0   0   0   0   0   0  17   0   0   0   0   0   0   0   0   0   0   0   0   0   0   0   0   0   0   0  28   0   0   0   1   0   0   0   0   0  
 0   0   0   0   0   0   0   0   0   1   1   0   0   0   5  89   0  60   0   0   0   0   0   1   0   0   1   0   0   0   0   0   0   0   0   0   1  21   0   1   0   0  39   0   0   0   0   0   0  19   0   0   0   0   0   0   1   0   0   0  
 0   0   0   1   0   0   1   0   0   0   0   0   0   0   0   0   0   0   0   0   0   2   0   0   0   0   0   0   0   0   0   1   0   0   0   0   0   0   1   0   0  88   0   0   0   0   0   0   1   0   0   1   0   0   0   1   0   0   0   0  
 0   0   0   1   0   0   0   0   0   2   1   0   0   0   0   0   0   1   0   0   0   0   0   4   0   0   0   0   0   0   0   1   0   0   4   0   0   1   1   1   0   0   1   0   0  31   0   0   0   1   0   0   0   0  11   1   0   0   0   0  
 0   0   0   0   0   0   0   0   0   6   1   1   0   0   1  22   0  48   0   0   0   0   0   1   0   0   0   0   0   0   0  14   0   0   1   0   1   0   3   1   0   0   0   0   0   0   0   0   0   1   0   0   0   0   0   1  12   0   0   0  
 0   0   0  20   0   0   1   0   0  11  36   0   0   0   0   0   0   1   0   0   0   7   0   1   0   0   0   0   0   0   0   1   0   0   0   8   1   1   0   7   0   0   0   0   0   0   0   0   0   1   0   4   0   0   0  53   0   0   0   0  
 0   0   1   1   0   0   0   0   0  11   1   0   1   0   0   0   0   1   0   0   0   0   0  75   0   0   0   0   0   1   0   5   0   0  44   0  63   1   3   0   0   0   5   0   0  20   0   0   0   1   0   0   0   0   1   1   0   0   0  84  
 0   0   0   0   0   4   0   0   0   0   0   0   0   3   0   0   0   0   0   0   0   0   1   0   0   0   1   0   0   0   0   0   0   0   0   0   0   0   0   0   0   0   0   0   0   0   0   0   0   0   0   0   0   0   0   0   0   0   0   0  
 0   0   0  44   0   0  21   0  71   0   0   0   0   0   0   0   0   0   0   0   0   0   0   0   0   0   0   0   0   0   0  94   0   0   0   1   0   0   0   0   0   0   0   0   0   0   0   0   0   0   0  82   0   0   0   1   0   0   0   0  
 0   0   2   1   0   0   0   0   0  12   1   0  61   0   0   0   0   1   0   0   0   0   0   0   0   0   0   0  50   1   0   0   0   0   4   0  13   0   0   1   0   0   0   0   1   1   0   0   0   0   0   0   0   0   1   0   0   0   0  87  
 0   0   0   0   0   0   0   0   0   0   0   0   0   0   0   0  42   0   0   1   2   0   0   0   0   0   0   0   0   0   0   0   0   0   0   0   0   0   0   0   0   0   0   0   0   0   4   0   0   0   0   0   0   0   0   0   0   1  10   0  
 2   0   1   0   0   0   0   1   0   0   0   0   2   0   0   0   0   0   0   1   0   0   0   0   1  10   0   0   2  16   3   0   0   0   0   0   0   0   0   0   0   0  10   0   0   1  57   0   0   0   0   0   0   0   4   0   0   1   8   8  
 0   0   1   1   0   0   0   6   0  18   4   0   1   0   0   0   0   1   0   0   0   0   0   0   0   0   0   0   2   1   0   0   0   0   0   0   1   0   0   1   0   0   1   0  32   0   0   0   0   0   0   0   0   0   2   0   0   0   0   1  
 0   0   0   0   0   0   0   0   0   0   0   0   0   0   0   0  33   0   0  10  33   0   0   0  22   1   0   0   4   1   0   0   0   0   0   0   0   0   0   0   0   0   0   1   1   0   0   0   0   0   0   0   0   0   0   0   0   8   1  53  
 0   0   0   0   0   0   0   0   0   0   0   0   0   0   0   0   0   0   0   0   0   1   0   0   0   0   0   0   0   0   0   0   1   0   0   0   0   0   0   0   0   0   0   0   0   0   0   0   1   0   0   0   0   1   0   0   0   0   0   0  
 0   0   0   0   0   0   0   0   0   0   0   0   0   0   0   0   0   0   0   0   0   4   0   0   0   0   0   0   0   0   0   0  48   0   0   1   0   0   0   0   0   0   0   0   0   0   0  14   0   0   0   0   0   0   0   0   0   0   0   0  
 0   0   0  39   0   0   0   0   0  77   1   5   0   0   1   2   0   2   0   0   0  11   0   1   0   0   0   0   0   0   0  91   0   0   1   0  12   1  55  43   0   0   0   0   0   0   0   0   0   0   0   0   0   0   0   1   0   0   0   0  
31   0   0   0   0   0   0   0  23   0   0   0   0   0   0   0   0   0   0   0   0   0   0   0   0   0   0   0   0   0   1   0   0   1   0   0   0   0   0   0   0   0   0   0   0   0   0   0   0   0   0   0   0   0   0   0   0   0   0   0  
 0   0   0   7   0   0  20   0   0   0   0   0   0   0   0   0   0  25   0   0   0   0   0   0   0   0   0   0   0   0   0   1   0   0   0   5   0   0  15   0   0   1   0   0   0   0   0   0   0   0   0   0   0   0   0   1   0   0   0   0  
 0   1   0   0  23   0   0   0   0   0   0   0   0  14   0   0   0   0  24   0   0   0   0   0   0   0   0  30   0   0   0   0   0   0   0   0   0   0   0   0   0   0   0   0   0   0   0   0   0   0   0   0   0   0   0   0  86   0   0   0  
 0   0   0   0   0   0   0   0   0   0   0   9   0   0   1  89   0   0   0   0   0  64   0   7   0   0   0   0   0   0   0   0   0   0   0   0   0   0   0   0   0   0   0   0   0   0   0  70   0   0   0   0   0   0   0   0   0   0   0   0  
 1   0   1   3   0   0   0  56   0   8   1   0   1   0   0   0   0   0   0   0   0   0   0   0   0   0   0   0  50  58   1   0   0   1   0   0  77   0   0  18   0   0   3   0   1   1   0   0   0   0   0   0   0   0   0   0   0   0   0   2  
 0   0   0   1   0   0  45   0   0  73   1   0   0   0   0   0   0   1   0   0   0   1   0   0   0   0   0   0   0   0   0  23   0   0   0   1   1   1  69   7   0  17   0   0   0   0   0   0   0   1   0  15   0   0   0   0   0   0   0   0  
 0   1   0   0   1   0   0   0   0   0   0   6   0   0  22   3   0   0   9   0   0   0   0   1   0   0   0   1   0   0   0   0   0   0   1   0   0  86   0   0   0   0   0   0   0   0   0   0   0   0   0   0   1   0   0   0   0   0   0   0  
 0   0   0   0   0   0   0   0   0   0   0   0   0   0   0   0  33   0   0   1   1   0   0   0   1  82   0   0  70   2   0   0   0   0   0   0   0   0   0   0   0   0   0   2  73   0   1   0   0   0   0   0   0   0   0   0   0   0   1   1  
 0   0   0   0   0   0   0   0   0   0   0   0   0   0   0   0   1   0   0  16   1   0   0   0   1   4   0   0   1   1   0   0   0   0   0   0   0   0   0   0   0   0   0   1  20   0   1   0   0   0   0   0   0   0   0   0   0   1   0  65  
 0   0   1   0   0   0   0  76   0   0   4   0   1   0   0   0   0   0   0   1   0   0   0   0   1   1   0   0  65   1   0   0   0   0   0   0   0   0   0  28   0   0  26   0  33   1  76   0   0   0   0   0   0   0  10   0   0  48  27   0  
